(set-logic QF_LIA)
(set-option :produce-models true)
(declare-fun Produces_1_1 () Int)
(declare-fun Compras_1_1 () Int)
(declare-fun AceiteDisponible_1_1 () Int)
(declare-fun Produces_1_2 () Int)
(declare-fun Compras_1_2 () Int)
(declare-fun AceiteDisponible_1_2 () Int)
(declare-fun Produces_1_3 () Int)
(declare-fun Compras_1_3 () Int)
(declare-fun AceiteDisponible_1_3 () Int)
(declare-fun Produces_1_4 () Int)
(declare-fun Compras_1_4 () Int)
(declare-fun AceiteDisponible_1_4 () Int)
(declare-fun Produces_1_5 () Int)
(declare-fun Compras_1_5 () Int)
(declare-fun AceiteDisponible_1_5 () Int)
(declare-fun Produces_2_1 () Int)
(declare-fun Compras_2_1 () Int)
(declare-fun AceiteDisponible_2_1 () Int)
(declare-fun Produces_2_2 () Int)
(declare-fun Compras_2_2 () Int)
(declare-fun AceiteDisponible_2_2 () Int)
(declare-fun Produces_2_3 () Int)
(declare-fun Compras_2_3 () Int)
(declare-fun AceiteDisponible_2_3 () Int)
(declare-fun Produces_2_4 () Int)
(declare-fun Compras_2_4 () Int)
(declare-fun AceiteDisponible_2_4 () Int)
(declare-fun Produces_2_5 () Int)
(declare-fun Compras_2_5 () Int)
(declare-fun AceiteDisponible_2_5 () Int)
(declare-fun Produces_3_1 () Int)
(declare-fun Compras_3_1 () Int)
(declare-fun AceiteDisponible_3_1 () Int)
(declare-fun Produces_3_2 () Int)
(declare-fun Compras_3_2 () Int)
(declare-fun AceiteDisponible_3_2 () Int)
(declare-fun Produces_3_3 () Int)
(declare-fun Compras_3_3 () Int)
(declare-fun AceiteDisponible_3_3 () Int)
(declare-fun Produces_3_4 () Int)
(declare-fun Compras_3_4 () Int)
(declare-fun AceiteDisponible_3_4 () Int)
(declare-fun Produces_3_5 () Int)
(declare-fun Compras_3_5 () Int)
(declare-fun AceiteDisponible_3_5 () Int)
(declare-fun Produces_4_1 () Int)
(declare-fun Compras_4_1 () Int)
(declare-fun AceiteDisponible_4_1 () Int)
(declare-fun Produces_4_2 () Int)
(declare-fun Compras_4_2 () Int)
(declare-fun AceiteDisponible_4_2 () Int)
(declare-fun Produces_4_3 () Int)
(declare-fun Compras_4_3 () Int)
(declare-fun AceiteDisponible_4_3 () Int)
(declare-fun Produces_4_4 () Int)
(declare-fun Compras_4_4 () Int)
(declare-fun AceiteDisponible_4_4 () Int)
(declare-fun Produces_4_5 () Int)
(declare-fun Compras_4_5 () Int)
(declare-fun AceiteDisponible_4_5 () Int)
(declare-fun Produces_5_1 () Int)
(declare-fun Compras_5_1 () Int)
(declare-fun AceiteDisponible_5_1 () Int)
(declare-fun Produces_5_2 () Int)
(declare-fun Compras_5_2 () Int)
(declare-fun AceiteDisponible_5_2 () Int)
(declare-fun Produces_5_3 () Int)
(declare-fun Compras_5_3 () Int)
(declare-fun AceiteDisponible_5_3 () Int)
(declare-fun Produces_5_4 () Int)
(declare-fun Compras_5_4 () Int)
(declare-fun AceiteDisponible_5_4 () Int)
(declare-fun Produces_5_5 () Int)
(declare-fun Compras_5_5 () Int)
(declare-fun AceiteDisponible_5_5 () Int)
(declare-fun Produces_6_1 () Int)
(declare-fun Compras_6_1 () Int)
(declare-fun AceiteDisponible_6_1 () Int)
(declare-fun Produces_6_2 () Int)
(declare-fun Compras_6_2 () Int)
(declare-fun AceiteDisponible_6_2 () Int)
(declare-fun Produces_6_3 () Int)
(declare-fun Compras_6_3 () Int)
(declare-fun AceiteDisponible_6_3 () Int)
(declare-fun Produces_6_4 () Int)
(declare-fun Compras_6_4 () Int)
(declare-fun AceiteDisponible_6_4 () Int)
(declare-fun Produces_6_5 () Int)
(declare-fun Compras_6_5 () Int)
(declare-fun AceiteDisponible_6_5 () Int)
(declare-fun Beneficio () Int)
; 1. El producto está dentro de su dureza
;    <= dureza maxima
(assert (<= (+ (* 9 Produces_1_1) (+ (* 6 Produces_1_2) (+ (* 2 Produces_1_3) (+ (* 4 Produces_1_4) (+ (* 5 Produces_1_5) (+ (* 9 Produces_2_1) (+ (* 6 Produces_2_2) (+ (* 2 Produces_2_3) (+ (* 4 Produces_2_4) (+ (* 5 Produces_2_5) (+ (* 9 Produces_3_1) (+ (* 6 Produces_3_2) (+ (* 2 Produces_3_3) (+ (* 4 Produces_3_4) (+ (* 5 Produces_3_5) (+ (* 9 Produces_4_1) (+ (* 6 Produces_4_2) (+ (* 2 Produces_4_3) (+ (* 4 Produces_4_4) (+ (* 5 Produces_4_5) (+ (* 9 Produces_5_1) (+ (* 6 Produces_5_2) (+ (* 2 Produces_5_3) (+ (* 4 Produces_5_4) (+ (* 5 Produces_5_5) (+ (* 9 Produces_6_1) (+ (* 6 Produces_6_2) (+ (* 2 Produces_6_3) (+ (* 4 Produces_6_4) 5))))))))))))))))))))))))))))) (* 10 (+ Produces_6_5 (+ Produces_6_4 (+ Produces_6_3 (+ Produces_6_2 (+ Produces_6_1 (+ Produces_5_5 (+ Produces_5_4 (+ Produces_5_3 (+ Produces_5_2 (+ Produces_5_1 (+ Produces_4_5 (+ Produces_4_4 (+ Produces_4_3 (+ Produces_4_2 (+ Produces_4_1 (+ Produces_3_5 (+ Produces_3_4 (+ Produces_3_3 (+ Produces_3_2 (+ Produces_3_1 (+ Produces_2_5 (+ Produces_2_4 (+ Produces_2_3 (+ Produces_2_2 (+ Produces_2_1 (+ Produces_1_5 (+ Produces_1_4 (+ Produces_1_3 (+ Produces_1_2 Produces_1_1))))))))))))))))))))))))))))) ) ) )
;    >= dureza minima
(assert (>= (+ (* 9 Produces_1_1) (+ (* 6 Produces_1_2) (+ (* 2 Produces_1_3) (+ (* 4 Produces_1_4) (+ (* 5 Produces_1_5) (+ (* 9 Produces_2_1) (+ (* 6 Produces_2_2) (+ (* 2 Produces_2_3) (+ (* 4 Produces_2_4) (+ (* 5 Produces_2_5) (+ (* 9 Produces_3_1) (+ (* 6 Produces_3_2) (+ (* 2 Produces_3_3) (+ (* 4 Produces_3_4) (+ (* 5 Produces_3_5) (+ (* 9 Produces_4_1) (+ (* 6 Produces_4_2) (+ (* 2 Produces_4_3) (+ (* 4 Produces_4_4) (+ (* 5 Produces_4_5) (+ (* 9 Produces_5_1) (+ (* 6 Produces_5_2) (+ (* 2 Produces_5_3) (+ (* 4 Produces_5_4) (+ (* 5 Produces_5_5) (+ (* 9 Produces_6_1) (+ (* 6 Produces_6_2) (+ (* 2 Produces_6_3) (+ (* 4 Produces_6_4) 5))))))))))))))))))))))))))))) (* 1 (+ Produces_6_5 (+ Produces_6_4 (+ Produces_6_3 (+ Produces_6_2 (+ Produces_6_1 (+ Produces_5_5 (+ Produces_5_4 (+ Produces_5_3 (+ Produces_5_2 (+ Produces_5_1 (+ Produces_4_5 (+ Produces_4_4 (+ Produces_4_3 (+ Produces_4_2 (+ Produces_4_1 (+ Produces_3_5 (+ Produces_3_4 (+ Produces_3_3 (+ Produces_3_2 (+ Produces_3_1 (+ Produces_2_5 (+ Produces_2_4 (+ Produces_2_3 (+ Produces_2_2 (+ Produces_2_1 (+ Produces_1_5 (+ Produces_1_4 (+ Produces_1_3 (+ Produces_1_2 Produces_1_1))))))))))))))))))))))))))))) ) ) )
; 2. Se consigue el beneficio mínimo
(assert (>= (- (+ (* 90 Produces_1_1) (+ (* 90 Produces_1_2) (+ (* 90 Produces_1_3) (+ (* 90 Produces_1_4) (+ (* 90 Produces_1_5) (+ (* 90 Produces_2_1) (+ (* 90 Produces_2_2) (+ (* 90 Produces_2_3) (+ (* 90 Produces_2_4) (+ (* 90 Produces_2_5) (+ (* 90 Produces_3_1) (+ (* 90 Produces_3_2) (+ (* 90 Produces_3_3) (+ (* 90 Produces_3_4) (+ (* 90 Produces_3_5) (+ (* 90 Produces_4_1) (+ (* 90 Produces_4_2) (+ (* 90 Produces_4_3) (+ (* 90 Produces_4_4) (+ (* 90 Produces_4_5) (+ (* 90 Produces_5_1) (+ (* 90 Produces_5_2) (+ (* 90 Produces_5_3) (+ (* 90 Produces_5_4) (+ (* 90 Produces_5_5) (+ (* 90 Produces_6_1) (+ (* 90 Produces_6_2) (+ (* 90 Produces_6_3) (+ (* 90 Produces_6_4) 90))))))))))))))))))))))))))))) (+ (+ (* 110 Compras_1_1) (+ (* 120 Compras_1_2) (+ (* 130 Compras_1_3) (+ (* 110 Compras_1_4) (+ (* 115 Compras_1_5) (+ (* 130 Compras_2_1) (+ (* 130 Compras_2_2) (+ (* 110 Compras_2_3) (+ (* 90 Compras_2_4) (+ (* 115 Compras_2_5) (+ (* 110 Compras_3_1) (+ (* 140 Compras_3_2) (+ (* 130 Compras_3_3) (+ (* 100 Compras_3_4) (+ (* 95 Compras_3_5) (+ (* 100 Compras_4_1) (+ (* 120 Compras_4_2) (+ (* 150 Compras_4_3) (+ (* 110 Compras_4_4) (+ (* 105 Compras_4_5) (+ (* 70 Compras_5_1) (+ (* 80 Compras_5_2) (+ (* 120 Compras_5_3) (+ (* 60 Compras_5_4) (+ (* 115 Compras_5_5) (+ (* 90 Compras_6_1) (+ (* 100 Compras_6_2) (+ (* 140 Compras_6_3) (+ (* 80 Compras_6_4) 135))))))))))))))))))))))))))))) (+ (* 11 AceiteDisponible_1_1) (+ (* 12 AceiteDisponible_1_2) (+ (* 13 AceiteDisponible_1_3) (+ (* 11 AceiteDisponible_1_4) (+ (* 11 AceiteDisponible_1_5) (+ (* 13 AceiteDisponible_2_1) (+ (* 13 AceiteDisponible_2_2) (+ (* 11 AceiteDisponible_2_3) (+ (* 9 AceiteDisponible_2_4) (+ (* 11 AceiteDisponible_2_5) (+ (* 11 AceiteDisponible_3_1) (+ (* 14 AceiteDisponible_3_2) (+ (* 13 AceiteDisponible_3_3) (+ (* 10 AceiteDisponible_3_4) (+ (* 9 AceiteDisponible_3_5) (+ (* 10 AceiteDisponible_4_1) (+ (* 12 AceiteDisponible_4_2) (+ (* 15 AceiteDisponible_4_3) (+ (* 11 AceiteDisponible_4_4) (+ (* 10 AceiteDisponible_4_5) (+ (* 9 AceiteDisponible_5_1) (+ (* 10 AceiteDisponible_5_2) (+ (* 14 AceiteDisponible_5_3) (+ (* 8 AceiteDisponible_5_4) (+ (* 13 AceiteDisponible_5_5) (+ (* 11 AceiteDisponible_6_1) (+ (* 9 AceiteDisponible_6_2) (+ (* 10 AceiteDisponible_6_3) (+ (* 11 AceiteDisponible_6_4) 8))))))))))))))))))))))))))))) ) ) 10000 ) )
; 3. Al final del año tienen que quedar "toneladas" toneladas de aceite
(assert (= AceiteDisponible_6_1 500 ) )
(assert (= AceiteDisponible_6_2 600 ) )
(assert (= AceiteDisponible_6_3 300 ) )
(assert (= AceiteDisponible_6_4 450 ) )
(assert (= AceiteDisponible_6_5 370 ) )
; 4. cada mes nos queda lo que compramos menos lo que producimos más lo que teníamos almacenado anteriormente
(assert (= AceiteDisponible_2_1 (+ (- Compras_2_1 Produces_2_1 ) AceiteDisponible_1_1 ) ) )
(assert (= AceiteDisponible_2_2 (+ (- Compras_2_2 Produces_2_2 ) AceiteDisponible_1_2 ) ) )
(assert (= AceiteDisponible_2_3 (+ (- Compras_2_3 Produces_2_3 ) AceiteDisponible_1_3 ) ) )
(assert (= AceiteDisponible_2_4 (+ (- Compras_2_4 Produces_2_4 ) AceiteDisponible_1_4 ) ) )
(assert (= AceiteDisponible_2_5 (+ (- Compras_2_5 Produces_2_5 ) AceiteDisponible_1_5 ) ) )
(assert (= AceiteDisponible_3_1 (+ (- Compras_3_1 Produces_3_1 ) AceiteDisponible_2_1 ) ) )
(assert (= AceiteDisponible_3_2 (+ (- Compras_3_2 Produces_3_2 ) AceiteDisponible_2_2 ) ) )
(assert (= AceiteDisponible_3_3 (+ (- Compras_3_3 Produces_3_3 ) AceiteDisponible_2_3 ) ) )
(assert (= AceiteDisponible_3_4 (+ (- Compras_3_4 Produces_3_4 ) AceiteDisponible_2_4 ) ) )
(assert (= AceiteDisponible_3_5 (+ (- Compras_3_5 Produces_3_5 ) AceiteDisponible_2_5 ) ) )
(assert (= AceiteDisponible_4_1 (+ (- Compras_4_1 Produces_4_1 ) AceiteDisponible_3_1 ) ) )
(assert (= AceiteDisponible_4_2 (+ (- Compras_4_2 Produces_4_2 ) AceiteDisponible_3_2 ) ) )
(assert (= AceiteDisponible_4_3 (+ (- Compras_4_3 Produces_4_3 ) AceiteDisponible_3_3 ) ) )
(assert (= AceiteDisponible_4_4 (+ (- Compras_4_4 Produces_4_4 ) AceiteDisponible_3_4 ) ) )
(assert (= AceiteDisponible_4_5 (+ (- Compras_4_5 Produces_4_5 ) AceiteDisponible_3_5 ) ) )
(assert (= AceiteDisponible_5_1 (+ (- Compras_5_1 Produces_5_1 ) AceiteDisponible_4_1 ) ) )
(assert (= AceiteDisponible_5_2 (+ (- Compras_5_2 Produces_5_2 ) AceiteDisponible_4_2 ) ) )
(assert (= AceiteDisponible_5_3 (+ (- Compras_5_3 Produces_5_3 ) AceiteDisponible_4_3 ) ) )
(assert (= AceiteDisponible_5_4 (+ (- Compras_5_4 Produces_5_4 ) AceiteDisponible_4_4 ) ) )
(assert (= AceiteDisponible_5_5 (+ (- Compras_5_5 Produces_5_5 ) AceiteDisponible_4_5 ) ) )
(assert (= AceiteDisponible_6_1 (+ (- Compras_6_1 Produces_6_1 ) AceiteDisponible_5_1 ) ) )
(assert (= AceiteDisponible_6_2 (+ (- Compras_6_2 Produces_6_2 ) AceiteDisponible_5_2 ) ) )
(assert (= AceiteDisponible_6_3 (+ (- Compras_6_3 Produces_6_3 ) AceiteDisponible_5_3 ) ) )
(assert (= AceiteDisponible_6_4 (+ (- Compras_6_4 Produces_6_4 ) AceiteDisponible_5_4 ) ) )
(assert (= AceiteDisponible_6_5 (+ (- Compras_6_5 Produces_6_5 ) AceiteDisponible_5_5 ) ) )
;    El primer mes no contamos con lo que teníamos almacenado anteriormente
(assert (= AceiteDisponible_1_1 (- Compras_1_1 Produces_1_1 ) ) )
(assert (= AceiteDisponible_1_2 (- Compras_1_2 Produces_1_2 ) ) )
(assert (= AceiteDisponible_1_3 (- Compras_1_3 Produces_1_3 ) ) )
(assert (= AceiteDisponible_1_4 (- Compras_1_4 Produces_1_4 ) ) )
(assert (= AceiteDisponible_1_5 (- Compras_1_5 Produces_1_5 ) ) )
; 5. Cada mes produces como mucho MAXV aceites vegetales
(assert (<= (+ Produces_1_2 Produces_1_1) 3500 ) )
(assert (<= (+ Produces_2_2 Produces_2_1) 3500 ) )
(assert (<= (+ Produces_3_2 Produces_3_1) 3500 ) )
(assert (<= (+ Produces_4_2 Produces_4_1) 3500 ) )
(assert (<= (+ Produces_5_2 Produces_5_1) 3500 ) )
(assert (<= (+ Produces_6_2 Produces_6_1) 3500 ) )
; 6. Cada mes produces como mucho MAXN aceites animales
(assert (<= (+ Produces_1_5 (+ Produces_1_4 Produces_1_3)) 4050 ) )
(assert (<= (+ Produces_2_5 (+ Produces_2_4 Produces_2_3)) 4050 ) )
(assert (<= (+ Produces_3_5 (+ Produces_3_4 Produces_3_3)) 4050 ) )
(assert (<= (+ Produces_4_5 (+ Produces_4_4 Produces_4_3)) 4050 ) )
(assert (<= (+ Produces_5_5 (+ Produces_5_4 Produces_5_3)) 4050 ) )
(assert (<= (+ Produces_6_5 (+ Produces_6_4 Produces_6_3)) 4050 ) )
; 7. En ningún mes se supera el almacenamiento disponible para cada aceite
(assert (<= AceiteDisponible_1_1 1000 ) )
(assert (<= AceiteDisponible_1_2 2000 ) )
(assert (<= AceiteDisponible_1_3 1000 ) )
(assert (<= AceiteDisponible_1_4 2000 ) )
(assert (<= AceiteDisponible_1_5 1000 ) )
(assert (<= AceiteDisponible_2_1 1000 ) )
(assert (<= AceiteDisponible_2_2 2000 ) )
(assert (<= AceiteDisponible_2_3 1000 ) )
(assert (<= AceiteDisponible_2_4 2000 ) )
(assert (<= AceiteDisponible_2_5 1000 ) )
(assert (<= AceiteDisponible_3_1 1000 ) )
(assert (<= AceiteDisponible_3_2 2000 ) )
(assert (<= AceiteDisponible_3_3 1000 ) )
(assert (<= AceiteDisponible_3_4 2000 ) )
(assert (<= AceiteDisponible_3_5 1000 ) )
(assert (<= AceiteDisponible_4_1 1000 ) )
(assert (<= AceiteDisponible_4_2 2000 ) )
(assert (<= AceiteDisponible_4_3 1000 ) )
(assert (<= AceiteDisponible_4_4 2000 ) )
(assert (<= AceiteDisponible_4_5 1000 ) )
(assert (<= AceiteDisponible_5_1 1000 ) )
(assert (<= AceiteDisponible_5_2 2000 ) )
(assert (<= AceiteDisponible_5_3 1000 ) )
(assert (<= AceiteDisponible_5_4 2000 ) )
(assert (<= AceiteDisponible_5_5 1000 ) )
(assert (<= AceiteDisponible_6_1 1000 ) )
(assert (<= AceiteDisponible_6_2 2000 ) )
(assert (<= AceiteDisponible_6_3 1000 ) )
(assert (<= AceiteDisponible_6_4 2000 ) )
(assert (<= AceiteDisponible_6_5 1000 ) )
; 8. Las compras tienen que ser positivas o 0
(assert (>= Compras_1_1 0 ) )
(assert (>= Compras_1_2 0 ) )
(assert (>= Compras_1_3 0 ) )
(assert (>= Compras_1_4 0 ) )
(assert (>= Compras_1_5 0 ) )
(assert (>= Compras_2_1 0 ) )
(assert (>= Compras_2_2 0 ) )
(assert (>= Compras_2_3 0 ) )
(assert (>= Compras_2_4 0 ) )
(assert (>= Compras_2_5 0 ) )
(assert (>= Compras_3_1 0 ) )
(assert (>= Compras_3_2 0 ) )
(assert (>= Compras_3_3 0 ) )
(assert (>= Compras_3_4 0 ) )
(assert (>= Compras_3_5 0 ) )
(assert (>= Compras_4_1 0 ) )
(assert (>= Compras_4_2 0 ) )
(assert (>= Compras_4_3 0 ) )
(assert (>= Compras_4_4 0 ) )
(assert (>= Compras_4_5 0 ) )
(assert (>= Compras_5_1 0 ) )
(assert (>= Compras_5_2 0 ) )
(assert (>= Compras_5_3 0 ) )
(assert (>= Compras_5_4 0 ) )
(assert (>= Compras_5_5 0 ) )
(assert (>= Compras_6_1 0 ) )
(assert (>= Compras_6_2 0 ) )
(assert (>= Compras_6_3 0 ) )
(assert (>= Compras_6_4 0 ) )
(assert (>= Compras_6_5 0 ) )
; 9. Los aceites disponibles tienen que ser positivas o 0
(assert (>= AceiteDisponible_1_1 0 ) )
(assert (>= AceiteDisponible_1_2 0 ) )
(assert (>= AceiteDisponible_1_3 0 ) )
(assert (>= AceiteDisponible_1_4 0 ) )
(assert (>= AceiteDisponible_1_5 0 ) )
(assert (>= AceiteDisponible_2_1 0 ) )
(assert (>= AceiteDisponible_2_2 0 ) )
(assert (>= AceiteDisponible_2_3 0 ) )
(assert (>= AceiteDisponible_2_4 0 ) )
(assert (>= AceiteDisponible_2_5 0 ) )
(assert (>= AceiteDisponible_3_1 0 ) )
(assert (>= AceiteDisponible_3_2 0 ) )
(assert (>= AceiteDisponible_3_3 0 ) )
(assert (>= AceiteDisponible_3_4 0 ) )
(assert (>= AceiteDisponible_3_5 0 ) )
(assert (>= AceiteDisponible_4_1 0 ) )
(assert (>= AceiteDisponible_4_2 0 ) )
(assert (>= AceiteDisponible_4_3 0 ) )
(assert (>= AceiteDisponible_4_4 0 ) )
(assert (>= AceiteDisponible_4_5 0 ) )
(assert (>= AceiteDisponible_5_1 0 ) )
(assert (>= AceiteDisponible_5_2 0 ) )
(assert (>= AceiteDisponible_5_3 0 ) )
(assert (>= AceiteDisponible_5_4 0 ) )
(assert (>= AceiteDisponible_5_5 0 ) )
(assert (>= AceiteDisponible_6_1 0 ) )
(assert (>= AceiteDisponible_6_2 0 ) )
(assert (>= AceiteDisponible_6_3 0 ) )
(assert (>= AceiteDisponible_6_4 0 ) )
(assert (>= AceiteDisponible_6_5 0 ) )
; 10. La producción tiene que ser positiva o 0
(assert (>= Produces_1_1 0 ) )
(assert (>= Produces_1_2 0 ) )
(assert (>= Produces_1_3 0 ) )
(assert (>= Produces_1_4 0 ) )
(assert (>= Produces_1_5 0 ) )
(assert (>= Produces_2_1 0 ) )
(assert (>= Produces_2_2 0 ) )
(assert (>= Produces_2_3 0 ) )
(assert (>= Produces_2_4 0 ) )
(assert (>= Produces_2_5 0 ) )
(assert (>= Produces_3_1 0 ) )
(assert (>= Produces_3_2 0 ) )
(assert (>= Produces_3_3 0 ) )
(assert (>= Produces_3_4 0 ) )
(assert (>= Produces_3_5 0 ) )
(assert (>= Produces_4_1 0 ) )
(assert (>= Produces_4_2 0 ) )
(assert (>= Produces_4_3 0 ) )
(assert (>= Produces_4_4 0 ) )
(assert (>= Produces_4_5 0 ) )
(assert (>= Produces_5_1 0 ) )
(assert (>= Produces_5_2 0 ) )
(assert (>= Produces_5_3 0 ) )
(assert (>= Produces_5_4 0 ) )
(assert (>= Produces_5_5 0 ) )
(assert (>= Produces_6_1 0 ) )
(assert (>= Produces_6_2 0 ) )
(assert (>= Produces_6_3 0 ) )
(assert (>= Produces_6_4 0 ) )
(assert (>= Produces_6_5 0 ) )
; Maximizar las ganancias
(assert (= Beneficio (- (+ (* 90 Produces_1_1) (+ (* 90 Produces_1_2) (+ (* 90 Produces_1_3) (+ (* 90 Produces_1_4) (+ (* 90 Produces_1_5) (+ (* 90 Produces_2_1) (+ (* 90 Produces_2_2) (+ (* 90 Produces_2_3) (+ (* 90 Produces_2_4) (+ (* 90 Produces_2_5) (+ (* 90 Produces_3_1) (+ (* 90 Produces_3_2) (+ (* 90 Produces_3_3) (+ (* 90 Produces_3_4) (+ (* 90 Produces_3_5) (+ (* 90 Produces_4_1) (+ (* 90 Produces_4_2) (+ (* 90 Produces_4_3) (+ (* 90 Produces_4_4) (+ (* 90 Produces_4_5) (+ (* 90 Produces_5_1) (+ (* 90 Produces_5_2) (+ (* 90 Produces_5_3) (+ (* 90 Produces_5_4) (+ (* 90 Produces_5_5) (+ (* 90 Produces_6_1) (+ (* 90 Produces_6_2) (+ (* 90 Produces_6_3) (+ (* 90 Produces_6_4) 90))))))))))))))))))))))))))))) (+ (+ (* 110 Compras_1_1) (+ (* 120 Compras_1_2) (+ (* 130 Compras_1_3) (+ (* 110 Compras_1_4) (+ (* 115 Compras_1_5) (+ (* 130 Compras_2_1) (+ (* 130 Compras_2_2) (+ (* 110 Compras_2_3) (+ (* 90 Compras_2_4) (+ (* 115 Compras_2_5) (+ (* 110 Compras_3_1) (+ (* 140 Compras_3_2) (+ (* 130 Compras_3_3) (+ (* 100 Compras_3_4) (+ (* 95 Compras_3_5) (+ (* 100 Compras_4_1) (+ (* 120 Compras_4_2) (+ (* 150 Compras_4_3) (+ (* 110 Compras_4_4) (+ (* 105 Compras_4_5) (+ (* 70 Compras_5_1) (+ (* 80 Compras_5_2) (+ (* 120 Compras_5_3) (+ (* 60 Compras_5_4) (+ (* 115 Compras_5_5) (+ (* 90 Compras_6_1) (+ (* 100 Compras_6_2) (+ (* 140 Compras_6_3) (+ (* 80 Compras_6_4) 135))))))))))))))))))))))))))))) (+ (* 11 AceiteDisponible_1_1) (+ (* 12 AceiteDisponible_1_2) (+ (* 13 AceiteDisponible_1_3) (+ (* 11 AceiteDisponible_1_4) (+ (* 11 AceiteDisponible_1_5) (+ (* 13 AceiteDisponible_2_1) (+ (* 13 AceiteDisponible_2_2) (+ (* 11 AceiteDisponible_2_3) (+ (* 9 AceiteDisponible_2_4) (+ (* 11 AceiteDisponible_2_5) (+ (* 11 AceiteDisponible_3_1) (+ (* 14 AceiteDisponible_3_2) (+ (* 13 AceiteDisponible_3_3) (+ (* 10 AceiteDisponible_3_4) (+ (* 9 AceiteDisponible_3_5) (+ (* 10 AceiteDisponible_4_1) (+ (* 12 AceiteDisponible_4_2) (+ (* 15 AceiteDisponible_4_3) (+ (* 11 AceiteDisponible_4_4) (+ (* 10 AceiteDisponible_4_5) (+ (* 9 AceiteDisponible_5_1) (+ (* 10 AceiteDisponible_5_2) (+ (* 14 AceiteDisponible_5_3) (+ (* 8 AceiteDisponible_5_4) (+ (* 13 AceiteDisponible_5_5) (+ (* 11 AceiteDisponible_6_1) (+ (* 9 AceiteDisponible_6_2) (+ (* 10 AceiteDisponible_6_3) (+ (* 11 AceiteDisponible_6_4) 8))))))))))))))))))))))))))))) ) ) ) )
(maximize (- (+ (* 90 Produces_1_1) (+ (* 90 Produces_1_2) (+ (* 90 Produces_1_3) (+ (* 90 Produces_1_4) (+ (* 90 Produces_1_5) (+ (* 90 Produces_2_1) (+ (* 90 Produces_2_2) (+ (* 90 Produces_2_3) (+ (* 90 Produces_2_4) (+ (* 90 Produces_2_5) (+ (* 90 Produces_3_1) (+ (* 90 Produces_3_2) (+ (* 90 Produces_3_3) (+ (* 90 Produces_3_4) (+ (* 90 Produces_3_5) (+ (* 90 Produces_4_1) (+ (* 90 Produces_4_2) (+ (* 90 Produces_4_3) (+ (* 90 Produces_4_4) (+ (* 90 Produces_4_5) (+ (* 90 Produces_5_1) (+ (* 90 Produces_5_2) (+ (* 90 Produces_5_3) (+ (* 90 Produces_5_4) (+ (* 90 Produces_5_5) (+ (* 90 Produces_6_1) (+ (* 90 Produces_6_2) (+ (* 90 Produces_6_3) (+ (* 90 Produces_6_4) 90))))))))))))))))))))))))))))) (+ (+ (* 110 Compras_1_1) (+ (* 120 Compras_1_2) (+ (* 130 Compras_1_3) (+ (* 110 Compras_1_4) (+ (* 115 Compras_1_5) (+ (* 130 Compras_2_1) (+ (* 130 Compras_2_2) (+ (* 110 Compras_2_3) (+ (* 90 Compras_2_4) (+ (* 115 Compras_2_5) (+ (* 110 Compras_3_1) (+ (* 140 Compras_3_2) (+ (* 130 Compras_3_3) (+ (* 100 Compras_3_4) (+ (* 95 Compras_3_5) (+ (* 100 Compras_4_1) (+ (* 120 Compras_4_2) (+ (* 150 Compras_4_3) (+ (* 110 Compras_4_4) (+ (* 105 Compras_4_5) (+ (* 70 Compras_5_1) (+ (* 80 Compras_5_2) (+ (* 120 Compras_5_3) (+ (* 60 Compras_5_4) (+ (* 115 Compras_5_5) (+ (* 90 Compras_6_1) (+ (* 100 Compras_6_2) (+ (* 140 Compras_6_3) (+ (* 80 Compras_6_4) 135))))))))))))))))))))))))))))) (+ (* 11 AceiteDisponible_1_1) (+ (* 12 AceiteDisponible_1_2) (+ (* 13 AceiteDisponible_1_3) (+ (* 11 AceiteDisponible_1_4) (+ (* 11 AceiteDisponible_1_5) (+ (* 13 AceiteDisponible_2_1) (+ (* 13 AceiteDisponible_2_2) (+ (* 11 AceiteDisponible_2_3) (+ (* 9 AceiteDisponible_2_4) (+ (* 11 AceiteDisponible_2_5) (+ (* 11 AceiteDisponible_3_1) (+ (* 14 AceiteDisponible_3_2) (+ (* 13 AceiteDisponible_3_3) (+ (* 10 AceiteDisponible_3_4) (+ (* 9 AceiteDisponible_3_5) (+ (* 10 AceiteDisponible_4_1) (+ (* 12 AceiteDisponible_4_2) (+ (* 15 AceiteDisponible_4_3) (+ (* 11 AceiteDisponible_4_4) (+ (* 10 AceiteDisponible_4_5) (+ (* 9 AceiteDisponible_5_1) (+ (* 10 AceiteDisponible_5_2) (+ (* 14 AceiteDisponible_5_3) (+ (* 8 AceiteDisponible_5_4) (+ (* 13 AceiteDisponible_5_5) (+ (* 11 AceiteDisponible_6_1) (+ (* 9 AceiteDisponible_6_2) (+ (* 10 AceiteDisponible_6_3) (+ (* 11 AceiteDisponible_6_4) 8))))))))))))))))))))))))))))) ) ))
(check-sat)
(get-value (Compras_1_1) )
(get-value (Compras_1_2) )
(get-value (Compras_1_3) )
(get-value (Compras_1_4) )
(get-value (Compras_1_5) )
(get-value (Compras_2_1) )
(get-value (Compras_2_2) )
(get-value (Compras_2_3) )
(get-value (Compras_2_4) )
(get-value (Compras_2_5) )
(get-value (Compras_3_1) )
(get-value (Compras_3_2) )
(get-value (Compras_3_3) )
(get-value (Compras_3_4) )
(get-value (Compras_3_5) )
(get-value (Compras_4_1) )
(get-value (Compras_4_2) )
(get-value (Compras_4_3) )
(get-value (Compras_4_4) )
(get-value (Compras_4_5) )
(get-value (Compras_5_1) )
(get-value (Compras_5_2) )
(get-value (Compras_5_3) )
(get-value (Compras_5_4) )
(get-value (Compras_5_5) )
(get-value (Compras_6_1) )
(get-value (Compras_6_2) )
(get-value (Compras_6_3) )
(get-value (Compras_6_4) )
(get-value (Compras_6_5) )
(get-value (Produces_1_1) )
(get-value (Produces_1_2) )
(get-value (Produces_1_3) )
(get-value (Produces_1_4) )
(get-value (Produces_1_5) )
(get-value (Produces_2_1) )
(get-value (Produces_2_2) )
(get-value (Produces_2_3) )
(get-value (Produces_2_4) )
(get-value (Produces_2_5) )
(get-value (Produces_3_1) )
(get-value (Produces_3_2) )
(get-value (Produces_3_3) )
(get-value (Produces_3_4) )
(get-value (Produces_3_5) )
(get-value (Produces_4_1) )
(get-value (Produces_4_2) )
(get-value (Produces_4_3) )
(get-value (Produces_4_4) )
(get-value (Produces_4_5) )
(get-value (Produces_5_1) )
(get-value (Produces_5_2) )
(get-value (Produces_5_3) )
(get-value (Produces_5_4) )
(get-value (Produces_5_5) )
(get-value (Produces_6_1) )
(get-value (Produces_6_2) )
(get-value (Produces_6_3) )
(get-value (Produces_6_4) )
(get-value (Produces_6_5) )
(get-value (AceiteDisponible_1_1) )
(get-value (AceiteDisponible_1_2) )
(get-value (AceiteDisponible_1_3) )
(get-value (AceiteDisponible_1_4) )
(get-value (AceiteDisponible_1_5) )
(get-value (AceiteDisponible_2_1) )
(get-value (AceiteDisponible_2_2) )
(get-value (AceiteDisponible_2_3) )
(get-value (AceiteDisponible_2_4) )
(get-value (AceiteDisponible_2_5) )
(get-value (AceiteDisponible_3_1) )
(get-value (AceiteDisponible_3_2) )
(get-value (AceiteDisponible_3_3) )
(get-value (AceiteDisponible_3_4) )
(get-value (AceiteDisponible_3_5) )
(get-value (AceiteDisponible_4_1) )
(get-value (AceiteDisponible_4_2) )
(get-value (AceiteDisponible_4_3) )
(get-value (AceiteDisponible_4_4) )
(get-value (AceiteDisponible_4_5) )
(get-value (AceiteDisponible_5_1) )
(get-value (AceiteDisponible_5_2) )
(get-value (AceiteDisponible_5_3) )
(get-value (AceiteDisponible_5_4) )
(get-value (AceiteDisponible_5_5) )
(get-value (AceiteDisponible_6_1) )
(get-value (AceiteDisponible_6_2) )
(get-value (AceiteDisponible_6_3) )
(get-value (AceiteDisponible_6_4) )
(get-value (AceiteDisponible_6_5) )
(get-value (Beneficio) )